SCIP version 5.0.0 [precision: 8 byte] [memory: block] [mode: optimized] [LP solver: NONE] [GitHash: 3bbd232]
Copyright (C) 2002-2017 Konrad-Zuse-Zentrum fuer Informationstechnik Berlin (ZIB)

External codes: 
  Readline EditLine w  GNU library for command line editing (gnu.org/s/readline)
  CppAD 20160000.1     Algorithmic Differentiation of C++ algorithms developed by B. Bell (www.coin-or.org/CppAD)
  ZLIB 1.2.5           General purpose compression library by J. Gailly and M. Adler (zlib.net)
  GMP 6.1.2            GNU Multiple Precision Arithmetic Library developed by T. Granlund (gmplib.org)

user parameter file <scip.set> not found - using default parameters

read problem <../../Split_data/output/breast/8/1_sample_breast.logreg>
============

File name	:	../../Split_data/output/breast/8/1_sample_breast.logreg
Problem name 	:	1_sample_breast
Number of data	:	156
Number of var	:	33
The given data has linear independence

[dim=1] time: 0.003774
[dim=2] time: 0.008009
[dim=3] time: 0.012444
[dim=4] time: 0.016508
[dim=5] time: 0.02054
[dim=6] time: 0.024543
[dim=7] Time of forward = 0.028397sec.
AIC: 135.536
k: 6

[dim=33] time: 0.01266
[dim=32] time: 0.0253
[dim=31] time: 0.037716
[dim=30] time: 0.046217
[dim=29] time: 0.056319
[dim=28] time: 0.063036
[dim=27] time: 0.072345
[dim=26] time: 0.079269
[dim=25] time: 0.087029
[dim=24] time: 0.093785
[dim=23] Time of backward = 0.100731sec.
AIC: 115.279
k: 24
